	Costo	Iter.	Tiempo
1	529,51	227	37,015
2	868,03	195	58,718
3	851,75	315	226,094
4	1089,04	166	301,249
5	1403,99	87	300,812
6	560,96	212	32,562
7	926,42	288	300,296
8	873,84	256	300,921
9	1264,94	6	330,844
10	1566,68	3	385,656
11	1241,7	150	184,609
12	821,32	400	263,437
13	1635,52	281	300,531
14	874,51	204	66,358
